(set-logic QF_S)
(set-option :produce-models true)

(declare-fun s1735 () String)
(declare-fun s712 () String)
(declare-fun s709 () String)
(declare-fun s651 () String)
(declare-fun s648 () String)
(declare-fun s1102 () String)
(declare-fun s971 () String)
(declare-fun s861 () String)
(declare-fun s597 () String)
(declare-fun s806 () String)
(declare-fun s1813 () String)
(declare-fun s422 () String)
(declare-fun s532 () String)
(declare-fun s594 () String)
(declare-fun s732 () String)
(declare-fun s617 () String)
(declare-fun s417 () String)
(declare-fun s1049 () String)
(declare-fun s1928 () String)
(declare-fun s508 () String)
(declare-fun s792 () String)
(declare-fun s511 () String)
(declare-fun s147 () String)
(declare-fun s1007 () String)
(declare-fun s127 () String)

(assert (not (= s1049 s147 )))
(assert (not (= s147 s617 )))
(assert (not (= s127 s511 )))
(assert (not (= s147 s532 )))
(assert (= s806 s127 ))
(assert (not (= s1007 s127 )))
(assert (= s597 s594 ))
(assert (not (= s1102 s127 )))
(assert (= s651 s648 ))
(assert (= s712 s709 ))
(assert (not (= s147 s1735 )))
(assert (= s127 "(" ))
(assert (not (= s861 s147 )))
(assert (not (= s147 s732 )))
(assert (= s422 s417 ))
(assert (= s971 s147 ))
(assert (not (= s127 s712 )))
(assert (not (= s147 s1928 )))
(assert (not (= s147 s792 )))
(assert (not (= s1102 s147 )))
(assert (not (= s971 s127 )))
(assert (not (= s1049 s127 )))
(assert (= s147 s1928 ))
(assert (not (= s861 s127 )))
(assert (not (= s147 s1813 )))
(assert (not (= s127 s597 )))
(assert (not (= s127 s651 )))
(assert (= s127 s422 ))
(assert (= s511 s508 ))
(assert (= s147 ")" ))


(check-sat)
(get-model)
